p tw 156 181
1 2
2 69
3 14
4 5
5 55
6 7
7 8
8 9
9 10
9 55
10 11
11 12
12 13
13 15
14 25
14 60
15 55
16 17
17 18
18 19
19 20
20 21
20 22
21 22
21 27
22 23
23 24
24 26
25 36
26 55
27 28
28 29
29 30
30 55
31 32
32 33
33 34
34 35
35 37
36 47
37 38
38 39
38 42
39 40
40 41
41 55
42 43
43 44
44 45
45 55
46 48
47 58
48 49
49 50
50 51
50 55
51 52
52 53
53 54
54 55
55 56
56 57
57 59
58 65
58 68
59 124
60 61
61 62
62 63
63 64
65 66
66 67
67 60
68 70
69 80
70 71
71 72
71 55
72 73
73 74
74 75
75 76
76 77
76 55
76 107
76 16
76 128
76 147
76 31
76 46
77 78
78 79
79 81
80 91
81 82
81 84
82 83
83 100
84 85
85 86
85 87
86 87
86 90
87 88
88 89
89 100
90 92
91 102
92 93
92 95
93 94
94 100
95 96
96 97
97 98
98 99
99 100
100 101
101 103
102 113
103 104
104 105
105 106
106 55
107 108
108 109
109 110
110 111
111 112
112 114
113 124
114 115
114 118
115 116
116 117
117 55
118 119
119 120
119 123
120 121
121 122
122 55
123 125
124 135
125 126
126 127
127 55
128 129
129 130
130 131
130 137
131 132
132 133
133 134
134 136
135 146
136 55
137 138
138 139
139 140
140 141
140 55
141 142
142 143
143 144
144 145
145 55
146 3
146 60
147 148
148 149
149 150
150 151
150 153
151 152
152 153
152 6
153 154
154 155
155 156
156 4
